TITL xds_a.res in P2(1)/m
    xds_a.res
    created by SHELXL-2019/3 at 15:45:01 on 18-Jan-2024
REM Old TITL P21/m
REM SHELXT solution in P2(1)/m: R1 0.239, Rweak 0.105, Alpha 0.182
REM <I/s>   0.000 for    0 systematic absences,  Orientation as input
REM Formula found by SHELXT:  Si4 Al2 O15

CELL  0.02510   8.8520   5.6200  10.1850   90.000  115.517   90.000
ZERR    2.000   0.0000   0.0000   0.0000    0.000    0.000    0.000
LATT  1
SYMM -X, 1/2+Y, -Z
SFAC SI  2.1293 57.7748  2.5333 16.4756         =
         0.8349  2.8796  0.3216  0.3860  0.0000 =
         0.0000  0.0000  0.0000  1.1100 28.0860
SFAC AL  2.2756 72.3220  2.4280 19.7729         =
         0.8578  3.0799  0.3166  0.4076  0.0000 =
         0.0000  0.0000  0.0000  1.1800 26.9815
SFAC CA  4.4696 99.5228  2.9708 22.6958         =
         1.9696  4.1954  0.4818  0.4165  0.0000 =
         0.0000  0.0000  0.0000  1.4000 40.0800
SFAC FE  2.5440 64.4244  2.3434 14.8806         =
         1.7588  2.8539  0.5062  0.3502  0.0000 =
         0.0000  0.0000  0.0000  1.1700 55.8470
SFAC O   0.4548 23.7803  0.9173  7.6220         =
         0.4719  2.1440  0.1384  0.2959  0.0000 =
         0.0000  0.0000  0.0000  0.7300 15.9990
SFAC H   0.3754 15.4946  0.1408  4.1261         =
         0.0216  0.0246 -0.1012 46.8840  0.0000 =
         0.0000  0.0000  0.0000  0.3200  1.0080
UNIT 6 4 4 2 20 0
L.S. 20
BOND
LIST 6
FMAP 2
PLAN 20
XNPD 0.002
WGHT    0.200000
EXTI 2077.625000
FVAR       3.31627
FE1   4    0.290289    0.250000    0.724201    10.50000    0.01704    0.01715 =
         0.01073    0.00000    0.00616    0.00000
CA1   3    0.242302    0.250000    0.347329    10.50000    0.01819    0.00670 =
         0.01028    0.00000    0.01095    0.00000
CA2   3    0.394510    0.250000    0.075962    10.50000    0.00950    0.02210 =
         0.01747    0.00000    0.01020    0.00000
SI2   1    0.662489    0.250000    0.452410    10.50000    0.00836   -0.00014 =
        -0.00270    0.00000    0.00223    0.00000
AL2   2    1.000000    0.500000    1.000000    10.50000    0.02593    0.00934 =
         0.01273    0.00246    0.01494   -0.00285
SI06  1    0.819484    0.250000    1.184370    10.50000    0.01742    0.01127 =
         0.00569    0.00000    0.00372    0.00000
AL1   2    0.000000    0.000000    0.500000    10.50000    0.00810    0.01041 =
         0.01790   -0.00292    0.01063   -0.00265
SI1   1    0.689234    0.250000    0.779447    10.50000    0.01833    0.01850 =
         0.00301    0.00000    0.01464    0.00000
O009  5    0.933687    0.250000    1.095270    10.50000    0.01931    0.00524 =
         0.00210    0.00000    0.00603    0.00000
O00A  5    0.959282    0.250000    1.355022    10.50000    0.01360   -0.00934 =
         0.00691    0.00000    0.01018    0.00000
O00B  5    0.698834    0.013513    1.147054    11.00000    0.01223    0.00882 =
         0.00835    0.00147    0.00651   -0.00447
O00C  5    0.793027    0.487953    0.842402    11.00000    0.01062    0.00875 =
         0.02214    0.00107    0.00643   -0.00499
O00D  5    0.479660    0.250000    0.316780    10.50000    0.02032    0.00725 =
        -0.00251    0.00000    0.00635    0.00000
O00E  5    0.767690    0.495155    0.459062    11.00000    0.01310    0.00522 =
         0.01092    0.00492    0.00589    0.00482
O00F  5    0.628042    0.250000    0.599834    10.50000    0.03780    0.01527 =
         0.01328    0.00000    0.01534    0.00000
O00G  5    0.055447    0.250000    0.630717    10.50000    0.02587    0.01687 =
         0.01820    0.00000    0.02121    0.00000
O00H  5    0.514405    0.250000    0.801449    10.50000    0.03666    0.01313 =
         0.02070    0.00000    0.02708    0.00000
O00I  5    0.919169    0.750000    1.074385    10.50000    0.00445    0.00773 =
         0.00764    0.00000    0.00845    0.00000
HKLF 4




REM  xds_a.res in P2(1)/m
REM wR2 = 0.4627, GooF = S = 1.881, Restrained GooF = 1.881 for all data
REM R1 = 0.1943 for 1147 Fo > 4sig(Fo) and 0.2044 for all 1234 data
REM 119 parameters refined using 0 restraints

END  
     
WGHT      0.1995      0.9989 

REM Highest difference peak  0.366,  deepest hole -1.080,  1-sigma level  0.144
Q1    1   0.4318  0.2500  0.5856  10.50000  0.05    0.37
Q2    1   0.7427  0.1502  1.0317  11.00000  0.05    0.33
Q3    1   0.4764  0.1275  0.5961  11.00000  0.05    0.32
Q4    1   0.3716  0.2500  0.4850  10.50000  0.05    0.31
Q5    1   0.8900  0.3626  0.7440  11.00000  0.05    0.31
Q6    1   0.8778  0.0086  1.2384  11.00000  0.05    0.31
Q7    1   0.6216  0.1399  1.0118  11.00000  0.05    0.31
Q8    1   0.4538  0.1306  0.5068  11.00000  0.05    0.30
Q9    1   0.8306  0.7500  0.5083  10.50000  0.05    0.30
Q10   1   0.8605  0.6360  0.8855  11.00000  0.05    0.29
Q11   1   0.7750  0.7500  1.1207  10.50000  0.05    0.29
Q12   1   0.4970  0.2500  0.5277  10.50000  0.05    0.28
Q13   1   0.9835  0.7500  1.1760  10.50000  0.05    0.28
Q14   1   0.1219  0.1239  0.7362  11.00000  0.05    0.28
Q15   1   0.5430  0.1042  0.1849  11.00000  0.05    0.28
Q16   1   0.8850  0.2500  0.9157  10.50000  0.05    0.26
Q17   1   0.5530  0.1263  0.7024  11.00000  0.05    0.26
Q18   1   0.5199  0.0006  1.1047  11.00000  0.05    0.26
Q19   1   0.6637  0.1432  0.9836  11.00000  0.05    0.26
Q20   1   1.1135  0.6282  1.0356  11.00000  0.05    0.26
